32      4       
20      18      20      18      
0       0       0       0       0       3       2       4       6       
4       10      14      0       0       2       3       5       
10      0       3       0       18      2       7       10      
9       20      0       20      0       2       7       10      
1       12      18      0       0       3       8       9       10      
6       0       0       8       18      1       7       
5       4       0       0       18      2       8       9       
7       8       0       0       1       1       11      
7       0       18      0       11      1       11      
7       20      18      0       0       1       11      
8       15      18      0       0       2       12      14      
5       0       18      20      0       1       13      
6       0       0       20      18      2       15      16      
2       15      0       0       9       2       16      17      
2       0       0       1       16      2       17      23      
8       16      0       20      0       4       19      20      21      23      
9       20      0       17      0       1       18      
3       0       0       19      18      3       19      20      21      
10      0       1       5       0       2       22      24      
5       19      0       9       0       3       24      25      29      
2       0       18      20      0       3       24      25      29      
4       0       0       11      5       3       25      28      29      
1       14      0       0       18      2       24      29      
7       0       9       0       18      3       26      27      28      
4       12      18      0       0       2       26      27      
3       20      0       0       13      2       30      31      
10      0       14      15      0       2       30      31      
10      0       12      0       15      2       30      31      
5       20      0       20      0       2       30      31      
5       0       10      0       7       1       32      
4       0       14      20      0       1       32      
0       0       0       0       0       0       
